SYSTEM = "VASP"
NELMIN = 4
NELM = 120
EDIFF = 1E-6
EDIFFG = -1E-3
# replace_ispin
ISMEAR = -1
SIGMA = 0.001
NSW = 201
ISIF = 2
IBRION = 2
LREAL = replace_lreal
ENCUT = replace_encut
IVDW  = replace_vdW
# vdW_DF
# AMIN = 0.01
# KSPACING
# KGAMMA
# LDIPOL = .TRUE.
# IDIPOL = 3
# DIPOL
# ALGO
# LSORBIT = .TRUE.
# GGA_COMPAT = .FALSE.
LORBIT = 10
# NCORE