SYSTEM = "VASP"
NELMIN = 4
NELM = 120
EDIFF = 1E-6
EDIFFG = -1E-3
replace_ispin
ISMEAR = -5
SIGMA = 0.001
NEDOS = 3001
NSW = 0
ISIF = 2
IBRION = 2
LREAL = replace_lreal
ENCUT = replace_encut
IVDW  = replace_vdW
# AMIN = 0.01
# KSPACING
# KGAMMA
# LDIPOL = .TRUE.
# IDIPOL = 3
# DIPOL
# MAGNETIC
# ALGO
LORBIT = 11
# NCORE